nNurses = 191;
nHours = 26;
minHours = 10;
maxHours = 18;
maxConsec = 10;
maxPresence = 7;
demand = [46, 43, 40, 36, 35, 31, 36, 34, 33, 33, 35, 34, 29, 27, 28, 25, 26, 31, 33, 38, 43, 46, 49, 44, 44, 43];
